unsat
(forall ((A (_ BitVec 1))
         (B (_ BitVec 16))
         (C (_ BitVec 32))
         (D (_ BitVec 32))
         (E (_ BitVec 1))
         (F (_ BitVec 32))
         (G (_ BitVec 9))
         (H (_ BitVec 1))
         (I (_ BitVec 20))
         (J (_ BitVec 32))
         (K (_ BitVec 32))
         (L (_ BitVec 16))
         (M (_ BitVec 18))
         (N (_ BitVec 16))
         (O (_ BitVec 16))
         (P (_ BitVec 1))
         (Q (_ BitVec 16))
         (R (_ BitVec 36))
         (S (_ BitVec 16))
         (T (_ BitVec 1))
         (U (_ BitVec 16))
         (V (_ BitVec 72))
         (W (_ BitVec 16))
         (X (_ BitVec 32))
         (Y (_ BitVec 16))
         (Z (_ BitVec 1))
         (A1 (_ BitVec 16))
         (B1 (_ BitVec 32))
         (C1 (_ BitVec 32))
         (D1 (_ BitVec 16))
         (E1 (_ BitVec 9))
         (F1 (_ BitVec 32))
         (G1 (_ BitVec 32))
         (H1 (_ BitVec 1))
         (I1 (_ BitVec 1))
         (J1 (_ BitVec 1))
         (K1 (_ BitVec 1))
         (L1 (_ BitVec 1))
         (M1 (_ BitVec 1))
         (N1 (_ BitVec 32))
         (O1 (_ BitVec 16))
         (P1 (_ BitVec 1))
         (Q1 (_ BitVec 32))
         (R1 (_ BitVec 16))
         (S1 (_ BitVec 17))
         (T1 (_ BitVec 32))
         (U1 (_ BitVec 16))
         (V1 (_ BitVec 17))
         (W1 (_ BitVec 16))
         (X1 (_ BitVec 1))
         (Y1 (_ BitVec 16))
         (Z1 (_ BitVec 1))
         (A2 (_ BitVec 16))
         (B2 (_ BitVec 1))
         (C2 (_ BitVec 16))
         (D2 (_ BitVec 128))
         (E2 (_ BitVec 16))
         (F2 (_ BitVec 1))
         (G2 (_ BitVec 16))
         (H2 (_ BitVec 32))
         (I2 (_ BitVec 16))
         (J2 (_ BitVec 16))
         (K2 (_ BitVec 128))
         (L2 (_ BitVec 16))
         (M2 (_ BitVec 16))
         (N2 (_ BitVec 16))
         (O2 (_ BitVec 16))
         (P2 (_ BitVec 16))
         (Q2 (_ BitVec 8))
         (R2 (_ BitVec 16))
         (S2 (_ BitVec 16))
         (T2 (_ BitVec 16))
         (U2 (_ BitVec 16))
         (V2 (_ BitVec 1))
         (W2 (_ BitVec 16))
         (X2 (_ BitVec 1))
         (Y2 (_ BitVec 64))
         (Z2 (_ BitVec 1))
         (A3 (_ BitVec 32)))
  (! (let ((a!1 (or (= (bvor L1 P1) X1)
                    (not (= ((_ extract 6 0) Q2) #b0000000))
                    (not (= I1 #b0))))
           (a!2 (or (= X2 #b1)
                    ((_ bit2bool 3) E1)
                    (= J1 #b0)
                    (not (= ((_ extract 5 0) Q1) #b100001))))
           (a!3 (or (= X2 #b1)
                    ((_ bit2bool 3) E1)
                    (= J1 #b0)
                    (not (= ((_ extract 5 0) Q1) #b100000))))
           (a!4 (or (= X2 #b1)
                    ((_ bit2bool 3) E1)
                    (= J1 #b0)
                    (not (= ((_ extract 5 0) Q1) #b100010))))
           (a!5 (or (= X2 #b1)
                    ((_ bit2bool 1) E1)
                    (= Z #b0)
                    (not (= ((_ extract 5 0) N1) #b100010))))
           (a!6 (or (= X2 #b1)
                    ((_ bit2bool 5) E1)
                    ((_ bit2bool 1) C1)
                    (= V2 #b0)
                    (not (= ((_ extract 5 3) C1) #b010))))
           (a!7 (or (= X2 #b1)
                    ((_ bit2bool 1) D)
                    ((_ bit2bool 4) E1)
                    (= E #b0)
                    (not (= ((_ extract 5 3) D) #b010))))
           (a!8 (or (= X2 #b1)
                    ((_ bit2bool 1) C)
                    ((_ bit2bool 3) E1)
                    (not (= ((_ extract 5 3) C) #b010))
                    (= T #b0)))
           (a!9 (or (= X2 #b1)
                    (= H #b0)
                    ((_ bit2bool 1) K)
                    ((_ bit2bool 1) E1)
                    (not (= ((_ extract 5 3) K) #b010))))
           (a!10 (or (= X2 #b1)
                     (= A #b0)
                     ((_ bit2bool 0) E1)
                     ((_ bit2bool 1) H2)
                     (not (= ((_ extract 5 3) H2) #b010))))
           (a!11 (or (= X2 #b1)
                     ((_ bit2bool 3) E1)
                     (not (= ((_ extract 5 2) C) #x6))
                     (= T #b0)
                     (= ((_ extract 0 0) C) #b1))))
     (let ((a!12 (and a!1
                      (= Z1 #b1)
                      a!2
                      a!3
                      (or (= X2 #b1)
                          ((_ bit2bool 2) F)
                          ((_ bit2bool 1) F)
                          ((_ bit2bool 3) F)
                          ((_ bit2bool 4) F)
                          ((_ bit2bool 2) E1)
                          (= F2 #b0)
                          (not ((_ bit2bool 5) F)))
                      (or (= X2 #b1)
                          ((_ bit2bool 1) E1)
                          ((_ bit2bool 1) N1)
                          ((_ bit2bool 2) N1)
                          ((_ bit2bool 3) N1)
                          ((_ bit2bool 4) N1)
                          (= Z #b0)
                          (not ((_ bit2bool 5) N1)))
                      (or (= X2 #b1)
                          ((_ bit2bool 0) E1)
                          ((_ bit2bool 1) C1)
                          ((_ bit2bool 2) C1)
                          ((_ bit2bool 3) C1)
                          ((_ bit2bool 4) C1)
                          (= V2 #b0)
                          (not ((_ bit2bool 5) C1)))
                      a!4
                      (or (= X2 #b1)
                          ((_ bit2bool 2) F)
                          ((_ bit2bool 0) F)
                          ((_ bit2bool 3) F)
                          ((_ bit2bool 4) F)
                          ((_ bit2bool 2) E1)
                          (= F2 #b0)
                          (not ((_ bit2bool 5) F)))
                      a!5
                      (or (= X2 #b1)
                          ((_ bit2bool 0) E1)
                          ((_ bit2bool 0) C1)
                          ((_ bit2bool 2) C1)
                          ((_ bit2bool 3) C1)
                          ((_ bit2bool 4) C1)
                          (= V2 #b0)
                          (not ((_ bit2bool 5) C1))
                          (not ((_ bit2bool 1) C1)))
                      (or (= X2 #b1)
                          ((_ bit2bool 3) E1)
                          ((_ bit2bool 1) Q1)
                          ((_ bit2bool 5) Q1)
                          (= J1 #b0)
                          (not ((_ bit2bool 4) Q1))
                          (not ((_ bit2bool 3) Q1))
                          (not ((_ bit2bool 2) Q1)))
                      (or (= X2 #b1)
                          ((_ bit2bool 1) F)
                          ((_ bit2bool 5) F)
                          ((_ bit2bool 2) E1)
                          (= F2 #b0)
                          (not ((_ bit2bool 4) F))
                          (not ((_ bit2bool 3) F))
                          (not ((_ bit2bool 2) F)))
                      (or (= X2 #b1)
                          ((_ bit2bool 1) E1)
                          ((_ bit2bool 1) N1)
                          ((_ bit2bool 5) N1)
                          (= Z #b0)
                          (not ((_ bit2bool 4) N1))
                          (not ((_ bit2bool 3) N1))
                          (not ((_ bit2bool 2) N1)))
                      (or (= X2 #b1)
                          ((_ bit2bool 0) E1)
                          ((_ bit2bool 1) C1)
                          ((_ bit2bool 5) C1)
                          (= V2 #b0)
                          (not ((_ bit2bool 3) C1))
                          (not ((_ bit2bool 2) C1))
                          (not ((_ bit2bool 4) C1)))
                      (or (= X2 #b1)
                          ((_ bit2bool 0) F)
                          ((_ bit2bool 5) F)
                          ((_ bit2bool 2) E1)
                          (= F2 #b0)
                          (not ((_ bit2bool 4) F))
                          (not ((_ bit2bool 3) F))
                          (not ((_ bit2bool 2) F)))
                      (or (= X2 #b1)
                          ((_ bit2bool 3) E1)
                          ((_ bit2bool 0) Q1)
                          ((_ bit2bool 5) Q1)
                          (= J1 #b0)
                          (not ((_ bit2bool 4) Q1))
                          (not ((_ bit2bool 3) Q1))
                          (not ((_ bit2bool 2) Q1)))
                      (or (= X2 #b1)
                          ((_ bit2bool 1) E1)
                          ((_ bit2bool 0) N1)
                          ((_ bit2bool 5) N1)
                          (= Z #b0)
                          (not ((_ bit2bool 4) N1))
                          (not ((_ bit2bool 3) N1))
                          (not ((_ bit2bool 2) N1)))
                      (or (= X2 #b1)
                          ((_ bit2bool 0) E1)
                          ((_ bit2bool 0) C1)
                          ((_ bit2bool 5) C1)
                          (= V2 #b0)
                          (not ((_ bit2bool 3) C1))
                          (not ((_ bit2bool 2) C1))
                          (not ((_ bit2bool 4) C1)))
                      (or (= X2 #b1)
                          ((_ bit2bool 8) E1)
                          ((_ bit2bool 1) Q1)
                          ((_ bit2bool 2) Q1)
                          ((_ bit2bool 5) Q1)
                          (= J1 #b0)
                          (not ((_ bit2bool 4) Q1)))
                      (or (= X2 #b1)
                          ((_ bit2bool 2) F)
                          ((_ bit2bool 1) F)
                          ((_ bit2bool 5) F)
                          ((_ bit2bool 7) E1)
                          (= F2 #b0)
                          (not ((_ bit2bool 4) F)))
                      (or (= X2 #b1)
                          ((_ bit2bool 1) N1)
                          ((_ bit2bool 2) N1)
                          ((_ bit2bool 5) N1)
                          (= Z #b0)
                          (= ((_ extract 6 6) E1) #b1)
                          (not ((_ bit2bool 4) N1)))
                      (or (= X2 #b1)
                          ((_ bit2bool 5) E1)
                          ((_ bit2bool 1) C1)
                          ((_ bit2bool 2) C1)
                          ((_ bit2bool 5) C1)
                          (= V2 #b0)
                          (not ((_ bit2bool 4) C1)))
                      (or (= X2 #b1)
                          ((_ bit2bool 1) D)
                          ((_ bit2bool 2) D)
                          ((_ bit2bool 5) D)
                          ((_ bit2bool 4) E1)
                          (= E #b0)
                          (not ((_ bit2bool 4) D)))
                      (or (= X2 #b1)
                          ((_ bit2bool 1) C)
                          ((_ bit2bool 2) C)
                          ((_ bit2bool 5) C)
                          ((_ bit2bool 3) E1)
                          (= T #b0)
                          (not ((_ bit2bool 4) C)))
                      (or (= X2 #b1)
                          ((_ bit2bool 2) E1)
                          ((_ bit2bool 1) F1)
                          ((_ bit2bool 2) F1)
                          ((_ bit2bool 5) F1)
                          (= P #b0)
                          (not ((_ bit2bool 4) F1)))
                      (or (= X2 #b1)
                          (= H #b0)
                          ((_ bit2bool 2) K)
                          ((_ bit2bool 5) K)
                          ((_ bit2bool 1) K)
                          ((_ bit2bool 1) E1)
                          (not ((_ bit2bool 4) K)))
                      (or (= X2 #b1)
                          (= A #b0)
                          ((_ bit2bool 0) E1)
                          ((_ bit2bool 1) H2)
                          ((_ bit2bool 2) H2)
                          ((_ bit2bool 5) H2)
                          (not ((_ bit2bool 4) H2)))
                      (or (= X2 #b1)
                          ((_ bit2bool 8) E1)
                          ((_ bit2bool 0) Q1)
                          ((_ bit2bool 5) Q1)
                          (= ((_ extract 5 0) Q1) #b011110)
                          (= J1 #b0)
                          (= ((_ extract 5 0) Q1) #b011100)
                          (not ((_ bit2bool 4) Q1)))
                      (or (= X2 #b1)
                          ((_ bit2bool 0) F)
                          ((_ bit2bool 3) F)
                          ((_ bit2bool 5) F)
                          ((_ bit2bool 7) E1)
                          (= F2 #b0)
                          (not ((_ bit2bool 4) F)))
                      (or (= X2 #b1)
                          ((_ bit2bool 0) N1)
                          ((_ bit2bool 3) N1)
                          ((_ bit2bool 5) N1)
                          (= Z #b0)
                          (= ((_ extract 6 6) E1) #b1)
                          (not ((_ bit2bool 4) N1)))
                      (or (= X2 #b1)
                          ((_ bit2bool 5) E1)
                          ((_ bit2bool 0) C1)
                          ((_ bit2bool 3) C1)
                          ((_ bit2bool 5) C1)
                          (= V2 #b0)
                          (not ((_ bit2bool 4) C1)))
                      (or (= X2 #b1)
                          ((_ bit2bool 0) D)
                          ((_ bit2bool 3) D)
                          ((_ bit2bool 5) D)
                          ((_ bit2bool 4) E1)
                          (= E #b0)
                          (not ((_ bit2bool 4) D)))
                      (or (= X2 #b1)
                          ((_ bit2bool 3) C)
                          ((_ bit2bool 5) C)
                          ((_ bit2bool 3) E1)
                          (= T #b0)
                          (= ((_ extract 0 0) C) #b1)
                          (not ((_ bit2bool 4) C)))
                      (or (= X2 #b1)
                          ((_ bit2bool 2) E1)
                          ((_ bit2bool 0) F1)
                          ((_ bit2bool 3) F1)
                          ((_ bit2bool 5) F1)
                          (= P #b0)
                          (not ((_ bit2bool 4) F1)))
                      (or (= X2 #b1)
                          (= H #b0)
                          ((_ bit2bool 5) K)
                          ((_ bit2bool 0) K)
                          ((_ bit2bool 3) K)
                          ((_ bit2bool 1) E1)
                          (not ((_ bit2bool 4) K)))
                      (or (= X2 #b1)
                          (= A #b0)
                          ((_ bit2bool 0) E1)
                          ((_ bit2bool 0) H2)
                          ((_ bit2bool 3) H2)
                          ((_ bit2bool 5) H2)
                          (not ((_ bit2bool 4) H2)))
                      (or (= X2 #b1)
                          ((_ bit2bool 8) E1)
                          ((_ bit2bool 1) Q1)
                          ((_ bit2bool 3) Q1)
                          ((_ bit2bool 5) Q1)
                          (= J1 #b0)
                          (not ((_ bit2bool 4) Q1)))
                      (or (= X2 #b1)
                          ((_ bit2bool 1) F)
                          ((_ bit2bool 3) F)
                          ((_ bit2bool 5) F)
                          ((_ bit2bool 7) E1)
                          (= F2 #b0)
                          (not ((_ bit2bool 4) F)))
                      (or (= X2 #b1)
                          ((_ bit2bool 1) N1)
                          ((_ bit2bool 3) N1)
                          ((_ bit2bool 5) N1)
                          (= Z #b0)
                          (= ((_ extract 6 6) E1) #b1)
                          (not ((_ bit2bool 4) N1)))
                      a!6
                      a!7
                      a!8
                      (or (= X2 #b1)
                          ((_ bit2bool 2) E1)
                          ((_ bit2bool 1) F1)
                          ((_ bit2bool 3) F1)
                          ((_ bit2bool 5) F1)
                          (= P #b0)
                          (not ((_ bit2bool 4) F1)))
                      a!9
                      a!10
                      (or (= X2 #b1)
                          ((_ bit2bool 2) F)
                          ((_ bit2bool 0) F)
                          ((_ bit2bool 5) F)
                          ((_ bit2bool 7) E1)
                          (= F2 #b0)
                          (not ((_ bit2bool 4) F)))
                      (or (= X2 #b1)
                          ((_ bit2bool 6) E1)
                          ((_ bit2bool 0) N1)
                          ((_ bit2bool 2) N1)
                          ((_ bit2bool 5) N1)
                          (= Z #b0)
                          (not ((_ bit2bool 4) N1)))
                      (or (= X2 #b1)
                          ((_ bit2bool 5) E1)
                          ((_ bit2bool 0) C1)
                          ((_ bit2bool 2) C1)
                          ((_ bit2bool 5) C1)
                          (= V2 #b0)
                          (not ((_ bit2bool 4) C1)))
                      (or (= X2 #b1)
                          ((_ bit2bool 0) D)
                          ((_ bit2bool 2) D)
                          ((_ bit2bool 5) D)
                          ((_ bit2bool 4) E1)
                          (= E #b0)
                          (not ((_ bit2bool 4) D)))
                      a!11
                      (or (= X2 #b1)
                          ((_ bit2bool 2) E1)
                          ((_ bit2bool 0) F1)
                          ((_ bit2bool 2) F1)
                          ((_ bit2bool 5) F1)
                          (= P #b0)
                          (not ((_ bit2bool 4) F1)))
                      (or (= X2 #b1)
                          (= H #b0)
                          ((_ bit2bool 2) K)
                          ((_ bit2bool 5) K)
                          ((_ bit2bool 0) K)
                          ((_ bit2bool 1) E1)
                          (not ((_ bit2bool 4) K)))
                      (or (= X2 #b1)
                          (= A #b0)
                          ((_ bit2bool 0) E1)
                          ((_ bit2bool 0) H2)
                          ((_ bit2bool 2) H2)
                          ((_ bit2bool 5) H2)
                          (not ((_ bit2bool 4) H2)))
                      (or (= X2 #b1) (= Q2 #x00) (= X1 #b1))
                      (or (= X2 #b1)
                          (not ((_ bit2bool 8) E1))
                          (= ((_ extract 5 2) Q1) #x6)
                          (= ((_ extract 5 3) Q1) #b010))
                      (or (= X2 #b1)
                          (not ((_ bit2bool 7) E1))
                          (= ((_ extract 5 2) F) #x6)
                          (= ((_ extract 5 3) F) #b010))
                      (or (= X2 #b1)
                          (not ((_ bit2bool 6) E1))
                          (= ((_ extract 5 2) N1) #x6)
                          (= ((_ extract 5 3) N1) #b010))
                      (or (= X2 #b1)
                          (not ((_ bit2bool 5) E1))
                          (= ((_ extract 5 3) C1) #b010)
                          (= ((_ extract 5 2) C1) #x6))
                      (or (= X2 #b1)
                          (not ((_ bit2bool 4) E1))
                          (= ((_ extract 5 2) D) #x6)
                          (= ((_ extract 5 3) D) #b010))
                      (or (= X2 #b1)
                          (not ((_ bit2bool 3) E1))
                          (= ((_ extract 5 3) C) #b010)
                          (= ((_ extract 5 2) C) #x6)
                          (not (= J1 #b0)))
                      (or (= X2 #b1)
                          ((_ bit2bool 0) F2)
                          (not ((_ bit2bool 2) E1))
                          (= ((_ extract 5 2) F1) #x6)
                          (= ((_ extract 5 3) F1) #b010))
                      (or (= X2 #b1)
                          ((_ bit2bool 0) Z)
                          (not ((_ bit2bool 1) E1))
                          (= ((_ extract 5 2) K) #x6)
                          (= ((_ extract 5 3) K) #b010))
                      (or (= X2 #b1)
                          (= ((_ extract 5 2) H2) #x6)
                          (= ((_ extract 5 3) H2) #b010)
                          ((_ bit2bool 0) V2)
                          (not ((_ bit2bool 0) E1)))
                      (or (= X2 #b1)
                          (not ((_ bit2bool 8) E1))
                          (not ((_ bit2bool 1) Q1))
                          (not ((_ bit2bool 0) Q1)))
                      (or (= X2 #b1)
                          (not ((_ bit2bool 7) E1))
                          (not ((_ bit2bool 0) F))
                          (not ((_ bit2bool 1) F)))
                      (or (= X2 #b1)
                          (not ((_ bit2bool 6) E1))
                          (not ((_ bit2bool 1) N1))
                          (not ((_ bit2bool 0) N1)))
                      (or (= X2 #b1)
                          (not ((_ bit2bool 5) E1))
                          (not ((_ bit2bool 0) C1))
                          (not ((_ bit2bool 1) C1)))
                      (or (= X2 #b1)
                          (not ((_ bit2bool 4) E1))
                          (not ((_ bit2bool 1) D))
                          (not ((_ bit2bool 0) D)))
                      (or (= X2 #b1)
                          (not ((_ bit2bool 3) E1))
                          (not (= J1 #b0))
                          (not ((_ bit2bool 1) C))
                          (not ((_ bit2bool 0) C)))
                      (or (= X2 #b1)
                          ((_ bit2bool 0) F2)
                          (not ((_ bit2bool 2) E1))
                          (not ((_ bit2bool 1) F1))
                          (not ((_ bit2bool 0) F1)))
                      (or (= X2 #b1)
                          ((_ bit2bool 0) Z)
                          (not ((_ bit2bool 1) E1))
                          (not ((_ bit2bool 1) K))
                          (not ((_ bit2bool 0) K)))
                      (or (= X2 #b1)
                          ((_ bit2bool 0) V2)
                          (not ((_ bit2bool 1) H2))
                          (not ((_ bit2bool 0) H2))
                          (not ((_ bit2bool 0) E1)))
                      (or (= X2 #b1)
                          (not ((_ bit2bool 1) E1))
                          (= ((_ extract 5 0) N1) #b011110)
                          (= ((_ extract 5 2) K) #x6)
                          (= ((_ extract 5 3) K) #b010)
                          (= ((_ extract 5 0) N1) #b011101)
                          (= ((_ extract 5 0) N1) #b011100)
                          (= ((_ extract 5 0) N1) #b100001)
                          (= ((_ extract 5 0) N1) #b100000)
                          (= ((_ extract 5 0) N1) #b100010))
                      (or (= X2 #b1)
                          (not ((_ bit2bool 2) E1))
                          (= ((_ extract 5 2) F1) #x6)
                          (= ((_ extract 5 0) F) #b011110)
                          (= ((_ extract 5 3) F1) #b010)
                          (= ((_ extract 5 0) F) #b011101)
                          (= ((_ extract 5 0) F) #b100010)
                          (= ((_ extract 5 0) F) #b100000)
                          (= ((_ extract 5 0) F) #b100001)
                          (= ((_ extract 5 0) F) #b011100))
                      (or (= X2 #b1)
                          (not ((_ bit2bool 3) E1))
                          (= ((_ extract 5 3) C) #b010)
                          (= ((_ extract 5 0) Q1) #b011110)
                          (= ((_ extract 5 2) C) #x6)
                          (= ((_ extract 5 0) Q1) #b011101)
                          (= ((_ extract 5 0) Q1) #b100001)
                          (= ((_ extract 5 0) Q1) #b100010)
                          (= ((_ extract 5 0) Q1) #b100000)
                          (= ((_ extract 5 0) Q1) #b011100))
                      (or (= X2 #b1)
                          (= ((_ extract 5 2) H2) #x6)
                          (= ((_ extract 5 3) H2) #b010)
                          (= ((_ extract 5 0) C1) #b011100)
                          (= ((_ extract 5 0) C1) #b011101)
                          (not ((_ bit2bool 0) E1))
                          (= ((_ extract 5 0) C1) #b011110)
                          (= ((_ extract 5 0) C1) #b100010)
                          (= ((_ extract 5 0) C1) #b100000)
                          (= ((_ extract 5 0) C1) #b100001))
                      (or (= X2 #b1) (not ((_ bit2bool 8) E1)) (not (= J1 #b0)))
                      (or (= X2 #b1)
                          ((_ bit2bool 0) F2)
                          (not ((_ bit2bool 7) E1)))
                      (or (= X2 #b1)
                          ((_ bit2bool 0) Z)
                          (not ((_ bit2bool 6) E1)))
                      (or (= X2 #b1)
                          ((_ bit2bool 0) V2)
                          (not ((_ bit2bool 5) E1)))
                      (or (= X2 #b1)
                          ((_ bit2bool 0) E)
                          (not ((_ bit2bool 4) E1)))
                      (or (= X2 #b1)
                          ((_ bit2bool 0) T)
                          (not ((_ bit2bool 3) E1))
                          (= ((_ extract 5 0) Q1) #b011110)
                          (= ((_ extract 5 0) Q1) #b011101)
                          (= ((_ extract 5 0) Q1) #b100001)
                          (= ((_ extract 5 0) Q1) #b100010)
                          (= ((_ extract 5 0) Q1) #b100000)
                          (= ((_ extract 5 0) Q1) #b011100))
                      (or (= X2 #b1)
                          ((_ bit2bool 0) P)
                          (not ((_ bit2bool 2) E1))
                          (= ((_ extract 5 0) F) #b011110)
                          (= ((_ extract 5 0) F) #b011101)
                          (= ((_ extract 5 0) F) #b100010)
                          (= ((_ extract 5 0) F) #b100000)
                          (= ((_ extract 5 0) F) #b100001)
                          (= ((_ extract 5 0) F) #b011100))
                      (or (= X2 #b1)
                          ((_ bit2bool 0) H)
                          (not ((_ bit2bool 1) E1))
                          (= ((_ extract 5 0) N1) #b011110)
                          (= ((_ extract 5 0) N1) #b011101)
                          (= ((_ extract 5 0) N1) #b011100)
                          (= ((_ extract 5 0) N1) #b100001)
                          (= ((_ extract 5 0) N1) #b100000)
                          (= ((_ extract 5 0) N1) #b100010))
                      (or (= X2 #b1)
                          ((_ bit2bool 0) A)
                          (= ((_ extract 5 0) C1) #b011100)
                          (= ((_ extract 5 0) C1) #b011101)
                          (not ((_ bit2bool 0) E1))
                          (= ((_ extract 5 0) C1) #b011110)
                          (= ((_ extract 5 0) C1) #b100010)
                          (= ((_ extract 5 0) C1) #b100000)
                          (= ((_ extract 5 0) C1) #b100001))
                      (or (= X2 #b1)
                          ((_ bit2bool 0) T)
                          (not ((_ bit2bool 3) E1))
                          (not (= J1 #b0)))
                      (or (= X2 #b1)
                          ((_ bit2bool 0) F2)
                          ((_ bit2bool 0) P)
                          (not ((_ bit2bool 2) E1)))
                      (or (= X2 #b1)
                          ((_ bit2bool 0) H)
                          ((_ bit2bool 0) Z)
                          (not ((_ bit2bool 1) E1)))
                      (or (= X2 #b1)
                          ((_ bit2bool 0) V2)
                          ((_ bit2bool 0) A)
                          (not ((_ bit2bool 0) E1)))
                      (or (= X2 #b1)
                          (not ((_ bit2bool 3) E1))
                          (= ((_ extract 5 0) Q1) #b011110)
                          (= ((_ extract 5 0) Q1) #b011101)
                          (= ((_ extract 5 0) Q1) #b100001)
                          (= ((_ extract 5 0) Q1) #b100010)
                          (= ((_ extract 5 0) Q1) #b100000)
                          (= ((_ extract 5 0) Q1) #b011100)
                          (not ((_ bit2bool 1) C))
                          (not ((_ bit2bool 0) C)))
                      (or (= X2 #b1)
                          (not ((_ bit2bool 2) E1))
                          (= ((_ extract 5 0) F) #b011110)
                          (= ((_ extract 5 0) F) #b011101)
                          (= ((_ extract 5 0) F) #b100010)
                          (= ((_ extract 5 0) F) #b100000)
                          (= ((_ extract 5 0) F) #b100001)
                          (= ((_ extract 5 0) F) #b011100)
                          (not ((_ bit2bool 1) F1))
                          (not ((_ bit2bool 0) F1)))
                      (or (= X2 #b1)
                          (not ((_ bit2bool 1) E1))
                          (not ((_ bit2bool 1) K))
                          (not ((_ bit2bool 0) K))
                          (= ((_ extract 5 0) N1) #b011110)
                          (= ((_ extract 5 0) N1) #b011101)
                          (= ((_ extract 5 0) N1) #b011100)
                          (= ((_ extract 5 0) N1) #b100001)
                          (= ((_ extract 5 0) N1) #b100000)
                          (= ((_ extract 5 0) N1) #b100010))
                      (or (= X2 #b1)
                          (not ((_ bit2bool 1) H2))
                          (not ((_ bit2bool 0) H2))
                          (= ((_ extract 5 0) C1) #b011100)
                          (= ((_ extract 5 0) C1) #b011101)
                          (not ((_ bit2bool 0) E1))
                          (= ((_ extract 5 0) C1) #b011110)
                          (= ((_ extract 5 0) C1) #b100010)
                          (= ((_ extract 5 0) C1) #b100000)
                          (= ((_ extract 5 0) C1) #b100001))
                      (or (= X2 #b1) (= (bvor L1 P1) X1) (not (= Q2 #x00))))))
       (= (INV!slice!1 A
                       B
                       C
                       D
                       E
                       F
                       G
                       H
                       I
                       J
                       K
                       L
                       M
                       N
                       O
                       P
                       Q
                       R
                       S
                       T
                       U
                       V
                       W
                       X
                       Y
                       Z
                       A1
                       B1
                       C1
                       D1
                       E1
                       F1
                       G1
                       H1
                       I1
                       J1
                       K1
                       L1
                       M1
                       N1
                       O1
                       P1
                       Q1
                       R1
                       S1
                       T1
                       U1
                       V1
                       W1
                       X1
                       Y1
                       Z1
                       A2
                       B2
                       C2
                       D2
                       E2
                       F2
                       G2
                       H2
                       I2
                       J2
                       K2
                       L2
                       M2
                       N2
                       O2
                       P2
                       Q2
                       R2
                       S2
                       T2
                       U2
                       V2
                       W2
                       X2
                       Y2
                       Z2
                       A3)
          a!12)))
     :weight 0))
